NAME : eil51.50.559.tour
COMMENT : Length = 559
COMMENT : Found by LKH [Keld Helsgaun] Tue Dec 11 00:02:42 2018
TYPE : TOUR
DIMENSION : 53
TOUR_SECTION
1
7
49
25
15
19
5
45
43
41
20
42
14
26
44
8
24
2
28
53
13
39
17
51
35
31
11
40
34
46
16
38
18
48
52
47
33
3
21
37
29
23
9
27
32
4
36
30
22
10
50
6
12
-1
EOF
